(set-logic HORN)
(declare-fun state (Int Int (Array Int Int) Int Int Bool Bool Bool Int) Bool)
(assert (forall ((|main@%tmp8.i_0_5| Int) (|.y.9| Int) (|main@%shadow.mem.1_0_3| (Array Int Int)) (|main@%x.0.i_0_1| Int) (|main@%tmp2.i_0_5| Int) (|.loc.10| Bool) (|.loc.11| Bool) (|.loc.12| Bool) (|main@%tmp35.i_0_0| Int) (|.loc.20| Bool) (|.loc.18| Bool) (|.loc.19| Bool) (|.y.17| Int) (|.y.16| Int) (|.y.13| Int) (|.y.15| (Array Int Int)) (|.y.14| Int) (|.xtv.1| Int)) (=> (and (and (not .loc.10) (not .loc.11)) (not .loc.12)) (state |main@%tmp8.i_0_5| |.y.9| |main@%shadow.mem.1_0_3| |main@%x.0.i_0_1| |main@%tmp2.i_0_5| |.loc.10| |.loc.11| |.loc.12| |main@%tmp35.i_0_0|))))
(assert (forall ((|main@%tmp8.i_0_5| Int) (|.y.9| Int) (|main@%shadow.mem.1_0_3| (Array Int Int)) (|main@%x.0.i_0_1| Int) (|main@%tmp2.i_0_5| Int) (|.loc.10| Bool) (|.loc.11| Bool) (|.loc.12| Bool) (|main@%tmp35.i_0_0| Int) (|.loc.20| Bool) (|.loc.18| Bool) (|.loc.19| Bool) (|.y.17| Int) (|.y.16| Int) (|.y.13| Int) (|.y.15| (Array Int Int)) (|.y.14| Int) (|.xtv.1| Int)) (=> (and (state |main@%tmp8.i_0_5| |.y.9| |main@%shadow.mem.1_0_3| |main@%x.0.i_0_1| |main@%tmp2.i_0_5| |.loc.10| |.loc.11| |.loc.12| |main@%tmp35.i_0_0|) (let ((.def_19 (not .loc.10))) (let ((.def_20 (not .loc.11))) (let ((.def_26 (= (select main@%shadow.mem.1_0_3 main@%tmp35.i_0_0) 43))) (let ((.def_40 (<= main@%tmp8.i_0_5 0))) (let ((.def_41 (or (not (<= main@%tmp35.i_0_0 0)) .def_40))) (let ((.def_43 (not .def_40))) (let ((.def_44 (and (and (and (not (<= main@%tmp2.i_0_5 main@%x.0.i_0_1)) (= (+ main@%tmp8.i_0_5 (+ main@%x.0.i_0_1 (* (- 1) main@%tmp35.i_0_0))) 0)) .def_41) .def_43))) (let ((.def_50 (not .loc.18))) (let ((.def_53 (not .loc.19))) (let ((.def_60 (not .loc.20))) (let ((.def_64 (<= main@%x.0.i_0_1 .y.9))) (let ((.def_67 (= main@%tmp8.i_0_5 .y.13))) (let ((.def_70 (= main@%shadow.mem.1_0_3 .y.15))) (let ((.def_97 (= .y.14 0))) (let ((.def_99 (= main@%x.0.i_0_1 .y.16))) (let ((.def_104 (and .def_41 .def_43))) (let ((.def_114 (= (+ .y.9 (* (- 1) .y.14)) (- 1)))) (let ((.def_119 (= (+ main@%tmp8.i_0_5 (+ .y.9 (* (- 1) main@%tmp35.i_0_0))) 0))) (let ((.def_121 (not .def_64))) (and (not .loc.12) (or (or (or (or (and .loc.11 (or (or (and (and (and (and .loc.10 (and (not .def_26) .def_44)) .loc.20) .def_50) .def_53) (and (= main@%x.0.i_0_1 .y.17) (and (and (and (and (= .y.16 0) (and .def_19 (and (and .loc.18 .loc.19) .def_60))) .def_64) .def_67) .def_70))) (and (= main@%tmp2.i_0_5 .y.17) (and (= (+ main@%x.0.i_0_1 (* (- 1) .y.16)) (- 1)) (and .def_70 (and .def_67 (and .def_60 (and .loc.19 (and .loc.18 (and .loc.10 (and .def_26 .def_44))))))))))) (and (and (and .def_20 (and .def_70 (and .def_67 (and .def_64 (and .def_60 (and .def_50 (and .loc.10 .loc.19))))))) .def_97) .def_99)) (and (and (and (= .y.15 (store main@%shadow.mem.1_0_3 main@%tmp35.i_0_0 43)) (and (and .def_99 (and .def_67 (and .def_19 (and .def_60 (and .def_50 (and .loc.19 (and .loc.11 .def_104))))))) .def_114)) .def_119) .def_121)) (and (not (<= .y.16 0)) (and (not (<= .y.13 0)) (and .def_97 (and .def_20 (and .def_19 (and .def_60 (and .loc.18 .def_53)))))))) (and (= .y.15 (store main@%shadow.mem.1_0_3 main@%tmp35.i_0_0 42)) (and .def_121 (and .def_119 (and .def_114 (and .def_99 (and .def_20 (and .def_67 (and .def_60 (and .def_53 (and .loc.18 (and .loc.10 .def_104))))))))))))))))))))))))))))))))) (state |.y.13| |.y.14| |.y.15| |.y.16| |.y.17| |.loc.18| |.loc.19| |.loc.20| |.xtv.1|))))
(assert (forall ((|main@%tmp8.i_0_5| Int) (|.y.9| Int) (|main@%shadow.mem.1_0_3| (Array Int Int)) (|main@%x.0.i_0_1| Int) (|main@%tmp2.i_0_5| Int) (|.loc.10| Bool) (|.loc.11| Bool) (|.loc.12| Bool) (|main@%tmp35.i_0_0| Int) (|.loc.20| Bool) (|.loc.18| Bool) (|.loc.19| Bool) (|.y.17| Int) (|.y.16| Int) (|.y.13| Int) (|.y.15| (Array Int Int)) (|.y.14| Int) (|.xtv.1| Int)) (=> (state |main@%tmp8.i_0_5| |.y.9| |main@%shadow.mem.1_0_3| |main@%x.0.i_0_1| |main@%tmp2.i_0_5| |.loc.10| |.loc.11| |.loc.12| |main@%tmp35.i_0_0|) (not (and .loc.12 (and (not .loc.10) (not .loc.11)))))))
(check-sat)
